NAME: PointSet_Angle_45_10
TYPE: TSP
COMMENT: Points chosen discrete uniformly at random out of ${0, \ldots, 500}^2$.
DIMENSION: 45
EDGE_WEIGHT_TYPE: EUC_2D
NODE_COORD_SECTION
1 7 322
2 257 188
3 279 446
4 122 244
5 155 194
6 470 278
7 117 330
8 11 73
9 330 40
10 416 258
11 186 1
12 328 457
13 301 152
14 136 259
15 118 279
16 264 125
17 348 268
18 59 126
19 213 181
20 117 368
21 376 86
22 145 239
23 162 403
24 58 493
25 444 474
26 497 129
27 221 70
28 332 268
29 222 468
30 26 341
31 247 37
32 212 94
33 305 272
34 467 17
35 199 330
36 131 321
37 416 276
38 306 325
39 179 365
40 317 369
41 84 313
42 498 52
43 129 75
44 320 351
45 43 93
EOF
